/* Objective function */
max: +13.0485602911 x1,2 +4.98832858521 x2,3 +4.98832858521 x2,4 +5.2001158969 x3,5 +5.2001158969 x3,7 +10.6088516046 x4,6
 +10.6088516046 x4,7 +3.32821769804 x5,6 +3.52855608285 x6,8 +3.52855608285 x6,9 +6.59103603646 x7,10
 +12.8235191137 x8,12 +3 x9,11 +12.4631742024 x10,13 +3.33100697415 x11,12 +3.39336222086 x12,13 +3.39336222086 x12,14
 +8 x13,15 +11.3707259107 x14,15 +5.07665314188 x15,16;

/* Constraints */
node 1: +x1,2 = 1;
node 2: -x1,2 +x2,3 +x2,4 = 0;
node 3: -x2,3 +x3,5 +x3,7 = 0;
node 4: -x2,4 +x4,6 +x4,7 = 0;
node 5: -x3,5 +x5,6 = 0;
node 6: -x4,6 -x5,6 +x6,8 +x6,9 = 0;
node 7: -x3,7 -x4,7 +x7,10 = 0;
node 8: -x6,8 +x8,12 = 0;
node 9: -x6,9 +x9,11 = 0;
node 10: -x7,10 +x10,13 = 0;
node 11: -x9,11 +x11,12 = 0;
node 12: -x8,12 -x11,12 +x12,13 +x12,14 = 0;
node 13: -x10,13 -x12,13 +x13,15 = 0;
node 14: -x12,14 +x14,15 = 0;
node 15: -x13,15 -x14,15 +x15,16 = 0;
node 16: -x15,16 = -1;

/* Variable bounds */
x1,1 <= 1;
x1,2 <= 1;
x1,3 <= 1;
x1,4 <= 1;
x1,5 <= 1;
x1,6 <= 1;
x1,7 <= 1;
x1,8 <= 1;
x1,9 <= 1;
x1,10 <= 1;
x1,11 <= 1;
x1,12 <= 1;
x1,13 <= 1;
x1,14 <= 1;
x1,15 <= 1;
x1,16 <= 1;
x2,1 <= 1;
x2,2 <= 1;
x2,3 <= 1;
x2,4 <= 1;
x2,5 <= 1;
x2,6 <= 1;
x2,7 <= 1;
x2,8 <= 1;
x2,9 <= 1;
x2,10 <= 1;
x2,11 <= 1;
x2,12 <= 1;
x2,13 <= 1;
x2,14 <= 1;
x2,15 <= 1;
x2,16 <= 1;
x3,1 <= 1;
x3,2 <= 1;
x3,3 <= 1;
x3,4 <= 1;
x3,5 <= 1;
x3,6 <= 1;
x3,7 <= 1;
x3,8 <= 1;
x3,9 <= 1;
x3,10 <= 1;
x3,11 <= 1;
x3,12 <= 1;
x3,13 <= 1;
x3,14 <= 1;
x3,15 <= 1;
x3,16 <= 1;
x4,1 <= 1;
x4,2 <= 1;
x4,3 <= 1;
x4,4 <= 1;
x4,5 <= 1;
x4,6 <= 1;
x4,7 <= 1;
x4,8 <= 1;
x4,9 <= 1;
x4,10 <= 1;
x4,11 <= 1;
x4,12 <= 1;
x4,13 <= 1;
x4,14 <= 1;
x4,15 <= 1;
x4,16 <= 1;
x5,1 <= 1;
x5,2 <= 1;
x5,3 <= 1;
x5,4 <= 1;
x5,5 <= 1;
x5,6 <= 1;
x5,7 <= 1;
x5,8 <= 1;
x5,9 <= 1;
x5,10 <= 1;
x5,11 <= 1;
x5,12 <= 1;
x5,13 <= 1;
x5,14 <= 1;
x5,15 <= 1;
x5,16 <= 1;
x6,1 <= 1;
x6,2 <= 1;
x6,3 <= 1;
x6,4 <= 1;
x6,5 <= 1;
x6,6 <= 1;
x6,7 <= 1;
x6,8 <= 1;
x6,9 <= 1;
x6,10 <= 1;
x6,11 <= 1;
x6,12 <= 1;
x6,13 <= 1;
x6,14 <= 1;
x6,15 <= 1;
x6,16 <= 1;
x7,1 <= 1;
x7,2 <= 1;
x7,3 <= 1;
x7,4 <= 1;
x7,5 <= 1;
x7,6 <= 1;
x7,7 <= 1;
x7,8 <= 1;
x7,9 <= 1;
x7,10 <= 1;
x7,11 <= 1;
x7,12 <= 1;
x7,13 <= 1;
x7,14 <= 1;
x7,15 <= 1;
x7,16 <= 1;
x8,1 <= 1;
x8,2 <= 1;
x8,3 <= 1;
x8,4 <= 1;
x8,5 <= 1;
x8,6 <= 1;
x8,7 <= 1;
x8,8 <= 1;
x8,9 <= 1;
x8,10 <= 1;
x8,11 <= 1;
x8,12 <= 1;
x8,13 <= 1;
x8,14 <= 1;
x8,15 <= 1;
x8,16 <= 1;
x9,1 <= 1;
x9,2 <= 1;
x9,3 <= 1;
x9,4 <= 1;
x9,5 <= 1;
x9,6 <= 1;
x9,7 <= 1;
x9,8 <= 1;
x9,9 <= 1;
x9,10 <= 1;
x9,11 <= 1;
x9,12 <= 1;
x9,13 <= 1;
x9,14 <= 1;
x9,15 <= 1;
x9,16 <= 1;
x10,1 <= 1;
x10,2 <= 1;
x10,3 <= 1;
x10,4 <= 1;
x10,5 <= 1;
x10,6 <= 1;
x10,7 <= 1;
x10,8 <= 1;
x10,9 <= 1;
x10,10 <= 1;
x10,11 <= 1;
x10,12 <= 1;
x10,13 <= 1;
x10,14 <= 1;
x10,15 <= 1;
x10,16 <= 1;
x11,1 <= 1;
x11,2 <= 1;
x11,3 <= 1;
x11,4 <= 1;
x11,5 <= 1;
x11,6 <= 1;
x11,7 <= 1;
x11,8 <= 1;
x11,9 <= 1;
x11,10 <= 1;
x11,11 <= 1;
x11,12 <= 1;
x11,13 <= 1;
x11,14 <= 1;
x11,15 <= 1;
x11,16 <= 1;
x12,1 <= 1;
x12,2 <= 1;
x12,3 <= 1;
x12,4 <= 1;
x12,5 <= 1;
x12,6 <= 1;
x12,7 <= 1;
x12,8 <= 1;
x12,9 <= 1;
x12,10 <= 1;
x12,11 <= 1;
x12,12 <= 1;
x12,13 <= 1;
x12,14 <= 1;
x12,15 <= 1;
x12,16 <= 1;
x13,1 <= 1;
x13,2 <= 1;
x13,3 <= 1;
x13,4 <= 1;
x13,5 <= 1;
x13,6 <= 1;
x13,7 <= 1;
x13,8 <= 1;
x13,9 <= 1;
x13,10 <= 1;
x13,11 <= 1;
x13,12 <= 1;
x13,13 <= 1;
x13,14 <= 1;
x13,15 <= 1;
x13,16 <= 1;
x14,1 <= 1;
x14,2 <= 1;
x14,3 <= 1;
x14,4 <= 1;
x14,5 <= 1;
x14,6 <= 1;
x14,7 <= 1;
x14,8 <= 1;
x14,9 <= 1;
x14,10 <= 1;
x14,11 <= 1;
x14,12 <= 1;
x14,13 <= 1;
x14,14 <= 1;
x14,15 <= 1;
x14,16 <= 1;
x15,1 <= 1;
x15,2 <= 1;
x15,3 <= 1;
x15,4 <= 1;
x15,5 <= 1;
x15,6 <= 1;
x15,7 <= 1;
x15,8 <= 1;
x15,9 <= 1;
x15,10 <= 1;
x15,11 <= 1;
x15,12 <= 1;
x15,13 <= 1;
x15,14 <= 1;
x15,15 <= 1;
x15,16 <= 1;
x16,1 <= 1;
x16,2 <= 1;
x16,3 <= 1;
x16,4 <= 1;
x16,5 <= 1;
x16,6 <= 1;
x16,7 <= 1;
x16,8 <= 1;
x16,9 <= 1;
x16,10 <= 1;
x16,11 <= 1;
x16,12 <= 1;
x16,13 <= 1;
x16,14 <= 1;
x16,15 <= 1;
x16,16 <= 1;

/* Integer definitions */
int x1,1,x1,2,x1,3,x1,4,x1,5,x1,6,x1,7,x1,8,x1,9,x1,10,x1,11,x1,12,x1,13,x1,14,x1,15,x1,16,x2,1,x2,2,x2,3,x2,4,x2,5,x2,6,x2,7,x2,8,x2,9,x2,10,x2,11,x2,12,x2,13,x2,14,x2,15,x2,16,x3,1,x3,2,x3,3,x3,4,x3,5,x3,6,x3,7,x3,8,x3,9,x3,10,x3,11,x3,12,x3,13,x3,14,x3,15,x3,16,x4,1,x4,2,x4,3,x4,4,x4,5,x4,6,x4,7,x4,8,x4,9,x4,10,x4,11,x4,12,x4,13,x4,14,x4,15,x4,16,x5,1,x5,2,x5,3,x5,4,x5,5,x5,6,x5,7,x5,8,x5,9,x5,10,x5,11,x5,12,x5,13,x5,14,x5,15,x5,16,x6,1,x6,2,x6,3,x6,4,x6,5,x6,6,x6,7,x6,8,x6,9,x6,10,x6,11,x6,12,x6,13,x6,14,x6,15,x6,16,x7,1,x7,2,x7,3,x7,4,x7,5,x7,6,x7,7,x7,8,x7,9,x7,10,x7,11,x7,12,x7,13,x7,14,x7,15,x7,16,x8,1,x8,2,x8,3,x8,4,x8,5,x8,6,x8,7,x8,8,x8,9,x8,10,x8,11,x8,12,x8,13,x8,14,x8,15,x8,16,x9,1,x9,2,x9,3,x9,4,x9,5,x9,6,x9,7,x9,8,x9,9,x9,10,x9,11,x9,12,x9,13,x9,14,x9,15,x9,16,x10,1,x10,2,x10,3,x10,4,x10,5,x10,6,x10,7,x10,8,x10,9,x10,10,x10,11,x10,12,x10,13,x10,14,x10,15,x10,16,x11,1,x11,2,x11,3,x11,4,x11,5,x11,6,x11,7,x11,8,x11,9,x11,10,x11,11,x11,12,x11,13,x11,14,x11,15,x11,16,x12,1,x12,2,x12,3,x12,4,x12,5,x12,6,x12,7,x12,8,x12,9,x12,10,x12,11,x12,12,x12,13,x12,14,x12,15,x12,16,x13,1,x13,2,x13,3,x13,4,x13,5,x13,6,x13,7,x13,8,x13,9,x13,10,x13,11,x13,12,x13,13,x13,14,x13,15,x13,16,x14,1,x14,2,x14,3,x14,4,x14,5,x14,6,x14,7,x14,8,x14,9,x14,10,x14,11,x14,12,x14,13,x14,14,x14,15,x14,16,x15,1,x15,2,x15,3,x15,4,x15,5,x15,6,x15,7,x15,8,x15,9,x15,10,x15,11,x15,12,x15,13,x15,14,x15,15,x15,16,x16,1,x16,2,x16,3,x16,4,x16,5,x16,6,x16,7,x16,8,x16,9,x16,10,x16,11,x16,12,x16,13,x16,14,x16,15,x16,16;
